NAME: I29474-n83-k8
COMMENT : (Fake et al, No of trucks: 8, Optimal value: )
TYPE : CVRP
DIMENSION : 83
EDGE_WEIGHT_TYPE : EUC_2D
CAPACITY : 18
NODE_COORD_SECTION
1 981 147
2 113 965
3 886 473
4 764 636
5 777 922
6 971 943
7 70 40
8 218 263
9 79 786
10 90 830
11 578 702
12 477 981
13 779 182
14 181 48
15 925 843
16 502 728
17 198 428
18 891 868
19 230 996
20 675 735
21 776 300
22 505 997
23 335 875
24 934 886
25 836 520
26 47 529
27 605 50
28 233 396
29 123 202
30 553 570
31 724 112
32 150 159
33 251 615
34 783 336
35 208 884
36 673 64
37 411 802
38 490 908
39 308 820
40 250 256
41 150 261
42 947 428
43 378 856
44 124 974
45 421 765
46 766 965
47 923 127
48 543 680
49 337 190
50 386 977
51 760 934
52 805 717
53 457 439
54 100 748
55 108 945
56 616 334
57 680 824
58 617 727
59 358 397
60 394 681
61 278 927
62 846 319
63 100 893
64 36 175
65 736 680
66 817 751
67 797 629
68 389 650
69 141 74
70 939 521
71 981 731
72 844 317
73 974 901
74 479 862
75 898 21
76 829 781
77 846 33
78 585 46
79 955 145
80 509 180
81 318 912
82 348 139
83 205 462
DEMAND_SECTION
1 0
2 1
3 1
4 2
5 1
6 2
7 1
8 2
9 1
10 2
11 1
12 1
13 1
14 2
15 2
16 2
17 2
18 1
19 2
20 1
21 1
22 1
23 1
24 1
25 2
26 2
27 2
28 1
29 2
30 2
31 1
32 2
33 2
34 1
35 2
36 2
37 1
38 2
39 2
40 2
41 2
42 1
43 1
44 1
45 1
46 2
47 2
48 1
49 1
50 1
51 2
52 2
53 1
54 1
55 2
56 2
57 1
58 1
59 2
60 1
61 2
62 2
63 2
64 2
65 2
66 1
67 2
68 2
69 2
70 1
71 2
72 1
73 2
74 1
75 2
76 1
77 2
78 2
79 1
80 2
81 2
82 2
83 1
DEPOT_SECTION
 1
 -1
 EOF 